<?xml version = "1.0" encoding="UTF-8" standalone="yes"?>
<CPLEXSolution version="1.2">
 <header
   problemName="IloCplex"
   solutionName="p0"
   solutionIndex="-1"
   objectiveValue="460284"
   solutionTypeValue="3"
   solutionTypeString="primal"
   solutionStatusValue="127"
   solutionStatusString="integer feasible solution"
   solutionMethodString="mip"
   primalFeasible="0"
   dualFeasible="0"
   writeLevel="3"/>
 <quality
   epInt="1.0000000000000001e-05"
   epRHS="9.9999999999999995e-07"
   maxIntInfeas="0"
   maxPrimalInfeas="0"
   maxX="1"
   maxSlack="1"/>
 <variables>
  <variable name="w3_1" index="43" value="1"/>
  <variable name="w3_3" index="45" value="1"/>
  <variable name="w3_4" index="46" value="1"/>
  <variable name="w3_6" index="48" value="1"/>
  <variable name="w3_9" index="51" value="1"/>
  <variable name="w3_10" index="52" value="1"/>
  <variable name="w3_11" index="53" value="1"/>
  <variable name="w4_1" index="57" value="1"/>
  <variable name="w4_3" index="59" value="1"/>
  <variable name="w4_4" index="60" value="1"/>
  <variable name="w4_6" index="62" value="1"/>
  <variable name="w4_9" index="65" value="1"/>
  <variable name="w4_10" index="66" value="1"/>
  <variable name="w4_11" index="67" value="1"/>
  <variable name="k3" index="199" value="1"/>
  <variable name="k4" index="200" value="1"/>
  <variable name="u1" index="211" value="1"/>
  <variable name="u3" index="213" value="1"/>
  <variable name="u4" index="214" value="1"/>
  <variable name="u6" index="216" value="1"/>
  <variable name="u9" index="219" value="1"/>
  <variable name="u10" index="220" value="1"/>
  <variable name="u11" index="221" value="1"/>
  <variable name="x0_18" index="242" value="1"/>
  <variable name="x1_33" index="357" value="1"/>
  <variable name="x2_22" index="446" value="1"/>
  <variable name="x3_24" index="548" value="1"/>
  <variable name="x4_71" index="695" value="1"/>
  <variable name="x5_79" index="803" value="1"/>
  <variable name="x6_54" index="878" value="1"/>
  <variable name="x7_19" index="943" value="1"/>
  <variable name="x8_58" index="1082" value="1"/>
  <variable name="x9_86" index="1210" value="1"/>
  <variable name="x10_97" index="1321" value="1"/>
  <variable name="x11_77" index="1401" value="1"/>
  <variable name="x12_59" index="1483" value="1"/>
  <variable name="x13_40" index="1564" value="1"/>
  <variable name="x14_25" index="1649" value="1"/>
  <variable name="x15_21" index="1745" value="1"/>
  <variable name="x16_99" index="1923" value="1"/>
  <variable name="x17_81" index="2005" value="1"/>
  <variable name="x18_0" index="2024" value="1"/>
  <variable name="x19_7" index="2131" value="1"/>
  <variable name="x20_78" index="2302" value="1"/>
  <variable name="x21_15" index="2339" value="1"/>
  <variable name="x22_2" index="2426" value="1"/>
  <variable name="x23_65" index="2589" value="1"/>
  <variable name="x24_3" index="2627" value="1"/>
  <variable name="x25_14" index="2738" value="1"/>
  <variable name="x26_62" index="2886" value="1"/>
  <variable name="x27_84" index="3008" value="1"/>
  <variable name="x28_53" index="3077" value="1"/>
  <variable name="x29_88" index="3212" value="1"/>
  <variable name="x30_56" index="3280" value="1"/>
  <variable name="x31_89" index="3413" value="1"/>
  <variable name="x32_72" index="3496" value="1"/>
  <variable name="x33_1" index="3525" value="1"/>
  <variable name="x34_42" index="3666" value="1"/>
  <variable name="x35_52" index="3776" value="1"/>
  <variable name="x36_55" index="3879" value="1"/>
  <variable name="x37_63" index="3987" value="1"/>
  <variable name="x38_91" index="4115" value="1"/>
  <variable name="x39_70" index="4194" value="1"/>
  <variable name="x40_13" index="4237" value="1"/>
  <variable name="x41_94" index="4418" value="1"/>
  <variable name="x42_34" index="4458" value="1"/>
  <variable name="x43_61" index="4585" value="1"/>
  <variable name="x44_95" index="4719" value="1"/>
  <variable name="x45_69" index="4793" value="1"/>
  <variable name="x46_57" index="4881" value="1"/>
  <variable name="x47_60" index="4984" value="1"/>
  <variable name="x48_51" index="5075" value="1"/>
  <variable name="x49_5" index="5129" value="1"/>
  <variable name="x50_73" index="5297" value="1"/>
  <variable name="x51_48" index="5372" value="1"/>
  <variable name="x52_35" index="5459" value="1"/>
  <variable name="x53_28" index="5552" value="1"/>
  <variable name="x54_6" index="5630" value="1"/>
  <variable name="x55_36" index="5760" value="1"/>
  <variable name="x56_30" index="5854" value="1"/>
  <variable name="x57_46" index="5970" value="1"/>
  <variable name="x58_8" index="6032" value="1"/>
  <variable name="x59_12" index="6136" value="1"/>
  <variable name="x60_47" index="6271" value="1"/>
  <variable name="x61_43" index="6367" value="1"/>
  <variable name="x62_4" index="6428" value="1"/>
  <variable name="x63_37" index="6561" value="1"/>
  <variable name="x64_96" index="6720" value="1"/>
  <variable name="x65_23" index="6747" value="1"/>
  <variable name="x66_67" index="6891" value="1"/>
  <variable name="x67_66" index="6990" value="1"/>
  <variable name="x68_74" index="7098" value="1"/>
  <variable name="x69_45" index="7169" value="1"/>
  <variable name="x70_39" index="7263" value="1"/>
  <variable name="x71_90" index="7414" value="1"/>
  <variable name="x72_32" index="7456" value="1"/>
  <variable name="x73_50" index="7574" value="1"/>
  <variable name="x74_49" index="7673" value="1"/>
  <variable name="x75_64" index="7788" value="1"/>
  <variable name="x76_92" index="7916" value="1"/>
  <variable name="x77_11" index="7935" value="1"/>
  <variable name="x78_20" index="8044" value="1"/>
  <variable name="x79_75" index="8199" value="1"/>
  <variable name="x80_83" index="8307" value="1"/>
  <variable name="x81_17" index="8341" value="1"/>
  <variable name="x82_87" index="8511" value="1"/>
  <variable name="x83_80" index="8604" value="1"/>
  <variable name="x84_27" index="8651" value="1"/>
  <variable name="x85_98" index="8822" value="1"/>
  <variable name="x86_9" index="8833" value="1"/>
  <variable name="x87_82" index="9006" value="1"/>
  <variable name="x88_29" index="9053" value="1"/>
  <variable name="x89_31" index="9155" value="1"/>
  <variable name="x90_26" index="9250" value="1"/>
  <variable name="x91_38" index="9362" value="1"/>
  <variable name="x92_76" index="9500" value="1"/>
  <variable name="x93_68" index="9592" value="1"/>
  <variable name="x94_41" index="9665" value="1"/>
  <variable name="x95_44" index="9768" value="1"/>
  <variable name="x96_93" index="9917" value="1"/>
  <variable name="x97_10" index="9934" value="1"/>
  <variable name="x98_85" index="10109" value="1"/>
  <variable name="x99_16" index="10140" value="1"/>
 </variables>
</CPLEXSolution>
